! PM3 Opt Def2-SVP
%maxcore 1000

%pal nprocs 1
end

* xyz 1 1
 C         -3.3857384829        2.5198637908       -1.6669079274
 N         -2.5530040129        2.1818138172       -0.5021061127
 C         -3.3101741937        1.6132900321        0.6455166272
 C         -2.3628884654        0.8377316400        1.5544568135
 C         -1.7172312279       -0.3493925874        0.8032829614
 C         -2.7806803661       -1.2448425923        0.1955334452
 C         -3.0244538199       -1.2749311926       -1.1710401654
 C         -4.0151159127       -2.0955182757       -1.6847293743
 C         -4.7728364452       -2.8852092877       -0.8382131094
 C         -4.5295880727       -2.8624844440        0.5256121343
 C         -3.5376280430       -2.0482331088        1.0407034364
 O         -0.8606858457        0.1460294543       -0.2320814620
 C          0.5059024582        0.2030679152       -0.0424735673
 C          1.2631050854        0.2964881228       -1.2075081511
 C          2.6379940995        0.3863173230       -1.1366452108
 C          3.2597449902        0.3888142929        0.1048097946
 C          2.5078606448        0.3002373625        1.2667580167
 C          1.1284271562        0.2148967789        1.1981974886
 C          4.7596990006        0.4632589583        0.2166017241
 F          5.3445357844        0.8462415161       -0.9224363572
 F          5.1433941183        1.3318170710        1.1652149813
 F          5.2901219841       -0.7243448234        0.5492747970
 H         -4.1474555301        3.2465360816       -1.3891429890
 H         -3.8753686781        1.6214229633       -2.0378826303
 H         -2.7708143318        2.9403215472       -2.4598216964
 H         -2.0377101558        3.0124720102       -0.1934781488
 H         -4.0632747440        0.9301244654        0.2462905895
 H         -3.8146009010        2.4138827828        1.1890501291
 H         -2.9285645862        0.4521841618        2.4012733498
 H         -1.5828407908        1.4970447809        1.9416196596
 H         -1.1320231989       -0.9471737377        1.5089264092
 H         -2.4168144937       -0.6874463321       -1.8438166523
 H         -4.1885047033       -2.1203714072       -2.7495393089
 H         -5.5419129382       -3.5254343975       -1.2400438033
 H         -5.1067811085       -3.4867041997        1.1891717746
 H         -3.3409397794       -2.0462965476        2.1025343650
 H          0.7639178609        0.2804266329       -2.1633688780
 H          3.2254802613        0.4508675969       -2.0385985258
 H          2.9985928339        0.3061089706        2.2274397172
 H          0.5668586837        0.1566572008        2.1170203203
 H         -1.8353355641        1.4444741176       -0.7394092775
*


