! PM3 Opt Def2-SVP
%maxcore 1000

%pal nprocs 1
end

* xyz 1 1
 C         -3.1073981628        3.7921147148       -0.4288671031
 N         -3.0432353734        2.3655091506       -0.7897087839
 C         -3.9727256521        1.4952482753       -0.0150431053
 C         -3.3379428934        1.0975549807        1.3120250137
 C         -2.0589588512        0.2581072071        1.1196266111
 C         -2.3455345187       -0.9944484467        0.3167391123
 C         -2.9291469395       -2.0811573554        0.9580652745
 C         -3.2264504521       -3.2316013755        0.2508369536
 C         -2.9389408485       -3.3097536680       -1.1023611089
 C         -2.3525407781       -2.2337059346       -1.7447930892
 C         -2.0616704872       -1.0772851971       -1.0406006921
 O         -1.1022546852        1.1242070478        0.4990981048
 C          0.2176375231        0.7315684373        0.4028659557
 C          0.7014290773       -0.5010652313        0.8145210848
 C          2.0474654370       -0.7877159509        0.6661079949
 C          2.9027044982        0.1513826415        0.1117729899
 C          2.4177721148        1.3854809407       -0.3032468380
 C          1.0773967646        1.6740282541       -0.1566510210
 C          4.3586352760       -0.1746314053       -0.0890842905
 F          4.5867000415       -0.6395599525       -1.3319413560
 F          5.1446859960        0.8983430638        0.0648727531
 F          4.7987098388       -1.1111421979        0.7571605257
 H         -2.8746056474        3.9184470156        0.6255714542
 H         -4.1033923700        4.1873257220       -0.6213260460
 H         -2.3862443067        4.3587934880       -1.0138489890
 H         -2.0844670228        1.9914753677       -0.5557756795
 H         -4.1739576330        0.5941769177       -0.5987072214
 H         -4.9124765091        2.0251460941        0.1483768058
 H         -4.0555556701        0.5030760591        1.8757399040
 H         -3.0958866893        1.9800633677        1.9050428769
 H         -1.6877918183       -0.0231992200        2.1138995234
 H         -3.1412501670       -2.0268991658        2.0157899780
 H         -3.6753626923       -4.0704204372        0.7587048685
 H         -3.1634230644       -4.2098562382       -1.6519998753
 H         -2.1157447629       -2.2914056822       -2.7957593198
 H         -1.5808019803       -0.2544338776       -1.5527902189
 H          0.0507820167       -1.2478653587        1.2382208121
 H          2.4291347466       -1.7442820433        0.9862925129
 H          3.0877719047        2.1143364511       -0.7310878637
 H          0.6905762728        2.6333512245       -0.4641714785
 H         -3.2187713343        2.2638844170       -1.7926736226
*


