! PM3 Opt Def2-SVP
%maxcore 1000

%pal nprocs 1
end

* xyz 1 1
 C         -2.8011434873        4.5454933339        0.1204062012
 N         -2.4857755379        3.2373766320       -0.4739588512
 C         -3.6686800425        2.3749153821       -0.7339981182
 C         -3.2267590937        0.9271778476       -0.9332570623
 C         -2.5859663969        0.3576783778        0.3434570074
 C         -2.2910301743       -1.1272644017        0.3286423313
 C         -1.7158030836       -1.6734396411        1.4723613274
 C         -1.4029342533       -3.0181683150        1.5294818943
 C         -1.6726988509       -3.8377064219        0.4464028661
 C         -2.2552074176       -3.3037547209       -0.6892572326
 C         -2.5605921648       -1.9543277030       -0.7537619315
 O         -1.4252711577        1.1437994004        0.7151728952
 C         -0.1426137109        0.7279947961        0.3960028740
 C          0.1865220841        0.0048241350       -0.7415569141
 C          1.5090953688       -0.3243667965       -0.9808197588
 C          2.4977065117        0.0875745744       -0.1011317557
 C          2.1709643946        0.8235626265        1.0310977265
 C          0.8516960539        1.1427797685        1.2772207735
 C          3.9359771950       -0.2872963495       -0.3442971946
 F          4.7757053945        0.6998337746       -0.0028808349
 F          4.2940173418       -1.3633681282        0.3749972837
 F          4.1793314312       -0.5807387700       -1.6269645839
 H         -1.8887888217        5.1189862862        0.2689439191
 H         -3.2862944519        4.4043467248        1.0839774320
 H         -3.4689155433        5.1072290316       -0.5310056605
 H         -1.8776171519        2.6478133563        0.1663689932
 H         -4.2081137163        2.7439651512       -1.6084960996
 H         -4.3292436468        2.4423236534        0.1332010223
 H         -2.5350067179        0.8606805153       -1.7747201441
 H         -4.1088464476        0.3327109454       -1.1677880099
 H         -3.2770696647        0.5477289289        1.1784040737
 H         -1.5105366827       -1.0372572617        2.3212260804
 H         -0.9542799649       -3.4253833472        2.4217293912
 H         -1.4332805318       -4.8883465504        0.4888397683
 H         -2.4733511780       -3.9371607241       -1.5349268810
 H         -3.0106411472       -1.5670752459       -1.6549167970
 H         -0.5678227460       -0.3290380012       -1.4338763535
 H          1.7690337693       -0.8950621069       -1.8582690600
 H          2.9442319686        1.1390211276        1.7135924779
 H          0.5756381314        1.7039590148        2.1558801254
 H         -1.9651517679        3.3731428527       -1.3463211391
*


