! PM3 Opt Def2-SVP
%maxcore 1000

%pal nprocs 1
end

* xyz 1 1
 C         -3.3239402948        2.3409591807       -1.8848796601
 N         -2.4904841857        2.0919343089       -0.6984039478
 C         -3.2531007219        1.6582873297        0.5032760918
 C         -2.3225239944        0.9380918591        1.4732314851
 C         -1.7168123666       -0.3288007907        0.8259426870
 C         -2.8097659032       -1.2351113811        0.2905263604
 C         -3.6121531379       -1.9187038655        1.1971303392
 C         -4.6316810509       -2.7374555038        0.7471477854
 C         -4.8573242096       -2.8850085463       -0.6119317888
 C         -4.0543090002       -2.2158838698       -1.5183966580
 C         -3.0360327865       -1.3904495589       -1.0705417794
 O         -0.8457814336        0.0492298281       -0.2455059860
 C          0.5178656239        0.1327687375       -0.0468447411
 C          1.2829599325        0.1583907339       -1.2109821368
 C          2.6553096340        0.2698448151       -1.1362868270
 C          3.2690677753        0.3552759801        0.1073878153
 C          2.5100901164        0.3367785578        1.2666899553
 C          1.1316397366        0.2295301065        1.1939468871
 C          4.7633428443        0.5207164686        0.1914565790
 F          5.4020224343       -0.0847139523       -0.8150879260
 F          5.1080672997        1.8222462529        0.1376187343
 F          5.2696423480        0.0388655492        1.3311275230
 H         -2.7045081151        2.6651721031       -2.7184295458
 H         -4.0619486015        3.1130139816       -1.6735011494
 H         -3.8421560010        1.4256244858       -2.1645629617
 H         -1.9486285902        2.9327797825       -0.4744313486
 H         -4.0330704364        0.9674587474        0.1752641941
 H         -3.7245174747        2.5224620254        0.9742476428
 H         -2.8936428069        0.6461104184        2.3531198371
 H         -1.5208438493        1.6053492392        1.7974014666
 H         -1.1515703677       -0.8855971128        1.5799213864
 H         -3.4297577309       -1.8205469937        2.2569445236
 H         -5.2445933798       -3.2678274845        1.4585915265
 H         -5.6483126878       -3.5287341991       -0.9623218684
 H         -4.2138310053       -2.3390499337       -2.5785157521
 H         -2.3946766168       -0.8985487018       -1.7871188555
 H          0.7909568179        0.0742727381       -2.1670135008
 H          3.2503290377        0.2791370048       -2.0356864052
 H          2.9921460616        0.4047051094        2.2292387263
 H          0.5652313369        0.2219572517        2.1115110220
 H         -1.7960579091        1.3146005854       -0.8690866811
*


