! DLPNO-CCSD(T) def2-TZVP def2-TZVP/C VeryTightSCF
%maxcore 3400

%pal nprocs 8 
end

*xyz 1 1
O             2.517049         1.720998        -1.448582
N            -1.406386         1.375103         1.053013
N             1.546222         0.692875         0.267830
C             1.196092         2.051588         0.825808
C             0.188739         2.800637        -0.072259
C             0.659262         1.976721         2.250078
C            -1.238885         2.694592         0.466858
C            -0.738549         1.340611         2.347962
C            -2.782130         0.910272         1.152939
C            -3.465982         0.694662        -0.202782
C             1.273731        -0.527871         1.004086
C             2.186446         0.596017        -0.855714
C            -2.705964        -0.246530        -1.103337
C             2.549902        -0.720175        -1.482251
C             2.134593        -0.892886         2.029097
C             0.184323        -1.305468         0.654812
C             3.377301        -0.598994        -2.758231
C            -2.851699        -1.626434        -0.971041
C            -1.818078         0.235564        -2.063351
C             1.879365        -2.059028         2.738493
C            -0.056981        -2.474116         1.363537
C             0.782574        -2.846767         2.406901
C            -2.117558        -2.502994        -1.760721
C            -1.079621        -0.635502        -2.855804
C            -1.221182        -2.010359        -2.701879
H             2.143285         2.593288         0.834651
H             0.218677         2.395464        -1.082427
H             0.497210         3.846589        -0.140868
H             0.614151         3.018390         2.578253
H             1.357134         1.478046         2.921965
H            -1.450101         3.491628         1.199253
H            -1.941246         2.834964        -0.353010
H            -0.669013         0.302423         2.677762
H            -1.320515         1.885542         3.109737
H            -2.755147        -0.045497         1.686625
H            -3.396866         1.597020         1.758842
H            -3.620878         1.648954        -0.711024
H            -4.462492         0.291769        -0.004116
H             1.610776        -1.245760        -1.676083
H             3.071371        -1.311911        -0.726276
H             2.991152        -0.273379         2.272152
H            -0.470926        -0.986616        -0.142173
H             3.600763        -1.595938        -3.136942
H             4.337598        -0.103721        -2.585856
H             2.834753        -0.078506        -3.554214
H            -3.554984        -2.019654        -0.242889
H            -1.717507         1.306586        -2.205351
H             2.538897        -2.352577         3.546541
H            -0.908495        -3.089144         1.097648
H             0.585742        -3.756770         2.961880
H            -2.254467        -3.573248        -1.650983
H            -0.414239        -0.239920        -3.617389
H            -0.661243        -2.693728        -3.330954
H             2.993892         1.544654        -2.271919
*

