! wB97X-D3 TightOpt Freq def2-TZVPP def2/J RIJCOSX TightSCF defgrid3
%maxcore 3500

%pal nprocs 8 
end

%geom
Calc_Hess true
end

%elprop
Dipole true
Quadrupole true
Polar 1
end

*xyzfile 1 1 Fluoxetine_41.xyz
