#opt

Fluoxetine

1 1
 C         -2.9887463832        2.7640837840       -1.6050744438
 N         -2.8569770510        1.6243043284       -0.6846771481
 C         -2.3213952753        1.9772080457        0.6536418151
 C         -2.2535502482        0.7393259015        1.5475259844
 C         -1.7192248024       -0.5074530072        0.7856891037
 C         -2.8668397003       -1.3249639755        0.2096044685
 C         -3.7730726362       -1.9122217394        1.0868342625
 C         -4.8294066800       -2.6629462510        0.6039827574
 C         -4.9899159085       -2.8430189075       -0.7605338657
 C         -4.0805881282       -2.2795671129       -1.6377444871
 C         -3.0238491620       -1.5231314820       -1.1568971196
 O         -0.8577667842       -0.1135778216       -0.2774347459
 C          0.4925755546        0.0499172858       -0.0654122368
 C          1.1039951972        0.0816604218        1.1799466872
 C          2.4725225943        0.2714262647        1.2646257277
 C          3.2248843730        0.4443593482        0.1134895913
 C          2.6147979648        0.4163078314       -1.1343841625
 C          1.2524165755        0.2231147793       -1.2209574830
 C          4.7153869620        0.6264876266        0.2216421037
 F          5.0615506262        1.3052616283        1.3242352278
 F          5.3556120083       -0.5528681929        0.2793318822
 F          5.2246702222        1.2917216509       -0.8222951364
 H         -3.6831103199        3.4982839985       -1.2000126854
 H         -3.3588333242        2.4261578415       -2.5706130723
 H         -2.0197580401        3.2391362893       -1.7459425616
 H         -2.1808054169        0.9186762068       -1.0518583974
 H         -2.9519944472        2.7410450904        1.1117143892
 H         -1.3227357855        2.3950503036        0.5070924081
 H         -3.2413135882        0.5037602265        1.9438450850
 H         -1.6094614331        0.9783821736        2.3934121728
 H         -1.1775199560       -1.1544313617        1.4842460845
 H         -3.6403610444       -1.7988630500        2.1526884996
 H         -5.5206155149       -3.1181313879        1.2954188704
 H         -5.8093142637       -3.4347728700       -1.1359491716
 H         -4.1831381396       -2.4351238769       -2.7003881610
 H         -2.2965838025       -1.1296255625       -1.8526536494
 H          0.5434413689       -0.0444385703        2.0919580676
 H          2.9518595239        0.2931724566        2.2307194353
 H          3.2035630537        0.5453822244       -2.0286209268
 H          0.7647296519        0.1878329840       -2.1822849160
 H         -3.7600779478        1.1471191151       -0.5750472732
  

