#opt

Fentanyl_OProt_1

1 1
O             3.429640         2.292988         0.350179
N            -1.874803         1.980031         0.045993
N             2.080014         0.597489        -0.155206
C             0.917000         1.546948        -0.242556
C            -0.073705         1.093192        -1.306719
C             0.261035         1.683618         1.129777
C            -1.297460         2.006715        -1.277894
C            -0.987086         2.559570         1.024572
C            -3.278077         2.335393         0.138283
C            -4.173136         1.246079        -0.476965
C             1.840075        -0.820883        -0.342863
C             3.272021         1.005431         0.149566
C            -3.736198        -0.131767        -0.041050
C             4.442559         0.070772         0.278803
C             1.416834        -1.586878         0.732121
C             2.007835        -1.371683        -1.604793
C             5.754178         0.753661         0.654652
C            -3.119254        -1.001658        -0.935034
C            -3.879823        -0.535785         1.284757
C             1.152037        -2.936080         0.534257
C             1.746498        -2.721737        -1.791106
C             1.316488        -3.501605        -0.723211
C            -2.634252        -2.235198        -0.515760
C            -3.401019        -1.767254         1.710314
C            -2.768041        -2.619494         0.811650
H             1.338305         2.508498        -0.538690
H            -0.415971         0.078266        -1.098659
H             0.395694         1.109314        -2.294484
H             0.972473         2.106248         1.845307
H            -0.054481         0.698684         1.481162
H            -1.022952         3.032260        -1.588361
H            -2.023482         1.637955        -2.002044
H            -1.486840         2.584735         1.994541
H            -0.699855         3.598652         0.775958
H            -3.516269         2.424105         1.201069
H            -3.505303         3.309774        -0.323944
H            -4.157290         1.307228        -1.568039
H            -5.205814         1.440168        -0.173890
H             4.536281        -0.465451        -0.668749
H             4.168370        -0.687936         1.016326
H             1.289969        -1.137877         1.709810
H             2.326773        -0.748386        -2.432843
H             6.541736         0.004105         0.726126
H             5.698583         1.245868         1.630308
H             6.076588         1.475206        -0.102464
H            -3.018111        -0.712353        -1.977129
H            -4.373944         0.121101         1.994694
H             0.812266        -3.541783         1.365678
H             1.872561        -3.162761        -2.772826
H             1.107695        -4.554361        -0.873668
H            -2.160198        -2.900129        -1.230386
H            -3.531238        -2.068231         2.744347
H            -2.403497        -3.586513         1.141222
H             4.353270         2.497769         0.554168

