#opt

Fentanyl_OProt_21

1 1
O             2.878535         1.957989         1.204735
N            -1.950251         2.466310        -0.649147
N             1.840563         0.494638        -0.109338
C             0.727530         1.485452        -0.303643
C             0.004297         1.278296        -1.626458
C            -0.257867         1.430319         0.860063
C            -1.044451         2.395337        -1.764346
C            -1.318392         2.522809         0.644211
C            -3.316968         2.022116        -0.809654
C            -3.557656         0.515264        -0.993606
C             1.759612        -0.810937        -0.732276
C             2.856853         0.770019         0.647167
C            -3.183758        -0.348683         0.187814
C             3.973640        -0.204431         0.898869
C             1.099267        -1.835074        -0.074172
C             2.340109        -1.000121        -1.978309
C             5.079589         0.328398         1.804814
C            -2.457363        -1.522853         0.007579
C            -3.580704        -0.012903         1.483049
C             1.026767        -3.083050        -0.681017
C             2.261267        -2.249843        -2.575803
C             1.605791        -3.290279        -1.926158
C            -2.132540        -2.337353         1.087406
C            -3.241383        -0.810656         2.566189
C            -2.512240        -1.979402         2.373002
H             1.211837         2.464592        -0.320730
H            -0.485594         0.301764        -1.637150
H             0.702688         1.322168        -2.466521
H             0.258538         1.603684         1.808297
H            -0.734426         0.447931         0.895135
H            -0.509662         3.352139        -1.872614
H            -1.614300         2.248318        -2.683425
H            -2.077760         2.450075         1.422427
H            -0.823242         3.499337         0.767529
H            -3.885841         2.385298         0.049741
H            -3.738843         2.534083        -1.681415
H            -3.019247         0.166837        -1.880658
H            -4.622685         0.376537        -1.212897
H             4.371924        -0.503438        -0.073647
H             3.522570        -1.107402         1.318658
H             0.637876        -1.658668         0.890192
H             2.843779        -0.178007        -2.474865
H             5.842602        -0.439290         1.929994
H             4.711754         0.571656         2.806334
H             5.580221         1.201710         1.375560
H            -2.152861        -1.812506        -0.994143
H            -4.172651         0.880358         1.651690
H             0.515600        -3.895213        -0.178179
H             2.709518        -2.410238        -3.549161
H             1.545630        -4.265888        -2.394231
H            -1.592448        -3.263274         0.921387
H            -3.562089        -0.529809         3.563404
H            -2.263630        -2.614375         3.216012
H             3.680222         2.073800         1.734297

