! DLPNO-CCSD(T) def2-TZVPP def2-TZVPP/C def2/J RIJCOSX VeryTightSCF TightPNO CPCM(Water) LED
%maxcore 7500

%pal nprocs 8 
end

*xyz 1 1
C(1)            -1.592725        -0.686961         1.547797
H(1)            -1.017434        -0.644346         2.477030
H(1)            -2.435977        -1.377110         1.716611
C(1)            -1.304585        -1.124808        -0.837523
H(1)            -2.106671        -1.873308        -0.946200
H(1)            -0.538435        -1.369315        -1.578463
N(1)            -0.710665        -1.215900         0.501545
N(1)            -0.209553         1.683887         0.027394
C(1)            -0.327425        -2.590406         0.827461
H(1)            -0.066671        -2.616543         1.887382
H(1)            -1.182393        -3.272405         0.696001
C(1)             0.833065        -3.128626        -0.003391
H(1)             1.014537        -4.171280         0.299314
H(1)             0.555540        -3.151475        -1.058211
C(1)             0.620948         2.885598        -0.067620
H(1)             0.035716         3.730755        -0.463090
H(1)             0.920171         3.159555         0.945861
C(1)             1.859067         2.720632        -0.943160
H(1)             1.562280         2.483385        -1.966011
H(1)             2.382083         3.688458        -0.980961
C(1)            -2.178223         0.687422         1.222969
H(1)            -2.861162         0.938839         2.038892
C(1)            -1.158504         1.823493         1.137729
H(1)            -0.580032         1.883564         2.063998
H(1)            -1.719058         2.767948         1.039914
C(1)            -0.874095         1.386216        -1.246813
H(1)            -0.112941         1.129659        -1.988624
H(1)            -1.395305         2.283530        -1.619050
C(1)            -1.896690         0.251145        -1.152860
H(1)            -2.364473         0.170776        -2.137580
C(1)             3.005881        -2.691442        -0.939574
H(1)             3.311953        -3.746329        -0.876632
H(1)             2.549198        -2.518678        -1.915512
H(1)             3.897303        -2.067408        -0.856127
C(1)             3.460875         2.034847         0.743487
H(1)             2.749306         2.216808         1.550181
H(1)             4.120014         1.219418         1.047430
H(1)             4.067770         2.942207         0.607986
C(1)            -2.936767         0.602330        -0.096511
Na(2)            1.337165        -0.088097         0.201476
N(1)             2.060397        -2.335689         0.115363
N(1)             2.765193         1.661898        -0.487267
C(1)             2.686006        -2.497405         1.426930
H(1)             2.012190        -2.168218         2.219528
H(1)             2.959393        -3.545023         1.620998
H(1)             3.591483        -1.889241         1.473366
C(1)             3.733348         1.330349        -1.529599
H(1)             4.374834         0.516918        -1.186201
H(1)             3.208139         1.004544        -2.429001
H(1)             4.369208         2.190577        -1.786713
H(1)            -3.416611         1.556647        -0.329505
H(1)            -3.712814        -0.166219        -0.047882
*

