! wB97X-D3 TightOpt Freq def2-TZVPP def2/J RIJCOSX TightSCF defgrid3 CHELPG
%maxcore 3500

%pal nprocs 8 
end

%chelpg
grid 0.1
rmax 0.3
end

*xyzfile 1 1 Fluoxetine_55.xyz
