#opt

Fluoxetine

1 1
 C         -3.5006230830        3.0807177924       -1.4668730654
 N         -3.2686995083        1.9202128989       -0.5939131916
 C         -3.4148875592        2.2048641033        0.8542887981
 C         -3.1776888384        0.9403210837        1.6764525655
 C         -1.9571781531        0.1122728631        1.1880461045
 C         -2.3999410426       -1.0158670305        0.2684209193
 C         -2.1011771400       -1.0312365082       -1.0886382293
 C         -2.5312208615       -2.0781987547       -1.8881018703
 C         -3.2669716344       -3.1144115634       -1.3416999996
 C         -3.5601310105       -3.1099294558        0.0128415226
 C         -3.1268716419       -2.0693619029        0.8137068023
 O         -1.0523652703        1.0157503633        0.5566721976
 C          0.2759808176        0.6638935496        0.4319364229
 C          1.1257043638        1.6906764983        0.0267900586
 C          2.4724842731        1.4474187682       -0.1396579044
 C          2.9734022444        0.1723096170        0.0943482557
 C          2.1285661221       -0.8508039806        0.4936731557
 C          0.7751834475       -0.6103022863        0.6582708852
 C          4.4505412378       -0.0745838040       -0.0584926345
 F          4.9672331538        0.5954570479       -1.0984539412
 F          5.1318459750        0.3245032762        1.0294118862
 F          4.7410734172       -1.3670061894       -0.2426797273
 H         -3.3455520417        2.8061530344       -2.5080907257
 H         -2.8102755295        3.8807960205       -1.2072407674
 H         -4.5194775679        3.4453417725       -1.3474285663
 H         -2.2863406779        1.5737865113       -0.6751195413
 H         -4.4111324694        2.6029051571        1.0535635470
 H         -2.6742370733        2.9630387809        1.1138311847
 H         -4.0583633542        0.2976806033        1.6495605833
 H         -3.0246410017        1.2470006386        2.7105048652
 H         -1.4719254356       -0.3274006640        2.0680699524
 H         -1.4918722701       -0.2535887787       -1.5312578067
 H         -2.2811655694       -2.0828975114       -2.9375131348
 H         -3.5987777976       -3.9292284391       -1.9649198456
 H         -4.1183815226       -3.9229887737        0.4490436416
 H         -3.3408540715       -2.0781536179        1.8723553437
 H          0.7223637189        2.6764538648       -0.1437092995
 H          3.1346274054        2.2399402128       -0.4505791919
 H          2.5214386755       -1.8397685533        0.6691553171
 H          0.1313419718       -1.4244634206        0.9487563583
 H         -3.8914625663        1.1467547578       -0.8554706745
  

