#opt

test_44

1 1
 C         -4.1393646988        2.3608829803       -1.5888414625
 N         -3.7697001587        1.5280044048       -0.4319833451
 C         -2.5064111043        1.9504081691        0.2263511842
 C         -2.0827614941        0.9728128813        1.3169358466
 C         -1.5990864380       -0.3783147955        0.7253016090
 C         -2.7707850390       -1.1783716679        0.1878962258
 C         -3.0400709076       -1.2268362549       -1.1824222799
 C         -4.1341397080       -1.9418578763       -1.6533682519
 C         -4.9725548357       -2.5928203488       -0.7652356707
 C         -4.7074860709       -2.5460728646        0.5951380459
 C         -3.6144116995       -1.8423905650        1.0708610998
 O         -0.6868351877       -0.1455066407       -0.3274277647
 C          0.6531322870       -0.0087579033       -0.0752066222
 C          1.4560198443        0.0726931589       -1.2132630404
 C          2.8194110633        0.2327868175       -1.0966939146
 C          3.3955333821        0.3085603204        0.1659385586
 C          2.6037674372        0.2287362943        1.3001217659
 C          1.2331695659        0.0727680203        1.1842037426
 C          4.8771232688        0.5273335738        0.3035721674
 F          5.5705135002        0.0181175972       -0.7208298692
 F          5.1750402508        1.8411207543        0.3511447242
 F          5.3742239526       -0.0131166939        1.4233063709
 H         -4.2640527945        3.3988930054       -1.2851244127
 H         -5.0709552749        2.0056756397       -2.0239906985
 H         -3.3563611184        2.3085145485       -2.3425602571
 H         -3.6322097346        0.5215113189       -0.7326219234
 H         -2.6404063139        2.9516835356        0.6400420715
 H         -1.7256898681        1.9864554900       -0.5374494655
 H         -2.8939493513        0.7915144966        2.0231486786
 H         -1.2582938055        1.4334476753        1.8622921424
 H         -1.1293270659       -0.9644864353        1.5241922368
 H         -2.3397144372       -0.7857463958       -1.8775348278
 H         -4.3170214570       -1.9998353319       -2.7151326130
 H         -5.8167813014       -3.1545794411       -1.1315602693
 H         -5.3453022296       -3.0727894675        1.2870764599
 H         -3.4017369636       -1.8285903414        2.1293200841
 H          0.9913089441        0.0006795736       -2.1833352711
 H          3.4383151676        0.2902064547       -1.9780548701
 H          3.0553719943        0.2865404082        2.2781103896
 H          0.6475918789        0.0138739372        2.0878229971
 H         -4.5276250175        1.5403327637        0.2590277430

