#opt

test_46

1 1
 C         -3.2820905289        4.5911314532        0.1714344971
 N         -3.0575306535        3.2901462723       -0.4769304281
 C         -4.1308820292        2.2879243872       -0.2420551514
 C         -3.6052441177        0.8931644178       -0.5676174233
 C         -2.5142551572        0.4575859308        0.4202328842
 C         -2.0415761878       -0.9661862893        0.2526007100
 C         -2.1023575065       -1.6481976121       -0.9561882982
 C         -1.5903665636       -2.9303682381       -1.0598556186
 C         -1.0037051433       -3.5407719653        0.0344419755
 C         -0.9424116823       -2.8690651633        1.2436080609
 C         -1.4606044561       -1.5923150737        1.3515889012
 O         -1.4148802766        1.4182546295        0.3329831755
 C         -0.1222256790        0.9202949753        0.1958820181
 C          0.3157298787        0.4127287014       -1.0198235475
 C          1.6057076271       -0.0694057170       -1.1323186380
 C          2.4527957267       -0.0268047272       -0.0339092784
 C          2.0226035216        0.5015788928        1.1751659229
 C          0.7298718280        0.9767334149        1.2894511649
 C          3.8401024836       -0.6047753595       -0.1420114767
 F          4.7129843454        0.0050738090        0.6673961619
 F          3.8491347522       -1.9079681408        0.1920363224
 F          4.3320489629       -0.5245224510       -1.3839238481
 H         -2.4646342483        5.2709735222       -0.0586351141
 H         -3.3342257335        4.4602970116        1.2502912690
 H         -4.2158736176        5.0312539384       -0.1755314040
 H         -2.1810888873        2.8170699360       -0.1182745941
 H         -5.0026099972        2.5331944960       -0.8516055334
 H         -4.4178286049        2.3409596196        0.8101238963
 H         -3.2180370851        0.8797547752       -1.5874195508
 H         -4.4242207785        0.1771920455       -0.5064204754
 H         -2.9062436075        0.5675825871        1.4421123903
 H         -2.5536565779       -1.1983375596       -1.8270594189
 H         -1.6491022673       -3.4510137963       -2.0029773492
 H         -0.6000640021       -4.5369493539       -0.0529289114
 H         -0.4939811821       -3.3394053404        2.1043293185
 H         -1.4143651229       -1.0742365068        2.2985882804
 H         -0.3465483151        0.3823130562       -1.8705426488
 H          1.9548753196       -0.4739130244       -2.0692069228
 H          2.6923978913        0.5358030109        2.0200088565
 H          0.3761638922        1.3854448345        2.2229662918
 H         -2.9359888861        3.4256907130       -1.4853242751

