#opt

test_45

1 1
 C         -4.2760141312        2.0524172837       -1.9893299816
 N         -3.8575689701        1.4605892637       -0.7074550186
 C         -2.6004266020        2.0385504229       -0.1659485187
 C         -2.1333839936        1.3026112481        1.0849791894
 C         -1.6060027967       -0.1191661927        0.7560968764
 C         -2.7485591218       -1.0453870829        0.3833664809
 C         -3.5623146881       -1.5717024379        1.3797955382
 C         -4.6258933089       -2.3939560240        1.0495533663
 C         -4.8910013236       -2.6975075329       -0.2773174531
 C         -4.0825985340       -2.1841455635       -1.2765886318
 C         -3.0184859406       -1.3517245500       -0.9530442400
 O         -0.6963810701       -0.0574339172       -0.3232173366
 C          0.6484298292        0.0773703405       -0.0950605964
 C          1.4560506313       -0.1142392997       -1.2159663384
 C          2.8252416255        0.0079765247       -1.1198805448
 C          3.4008508952        0.3282040239        0.1037586052
 C          2.6038804951        0.5201837659        1.2210816194
 C          1.2281433638        0.4032437320        1.1245001877
 C          4.8958049121        0.4312969805        0.2337183152
 F          5.2645547491        1.3583038628        1.1297477350
 F          5.4399294529       -0.7292846693        0.6414013314
 F          5.4919025231        0.7483257113       -0.9220474208
 H         -3.5043458491        1.8869157950       -2.7383151772
 H         -4.4331391444        3.1240810410       -1.8794181131
 H         -5.2013359049        1.5929002655       -2.3299455374
 H         -3.6871636189        0.4211091195       -0.8201075304
 H         -2.7617831380        3.0964942987        0.0494819234
 H         -1.8297768457        1.9485652518       -0.9355167776
 H         -2.9318745886        1.2332310655        1.8248322547
 H         -1.3209707718        1.8858139301        1.5200776649
 H         -1.1200831901       -0.5286974160        1.6495100851
 H         -3.3482146899       -1.3576917796        2.4161909555
 H         -5.2396783485       -2.8122828735        1.8313892391
 H         -5.7112213693       -3.3508813861       -0.5279387277
 H         -4.2651246889       -2.4407447117       -2.3085737876
 H         -2.3382669129       -1.0154875203       -1.7228744957
 H          0.9910205629       -0.3684768650       -2.1547048553
 H          3.4474102208       -0.1435889966       -1.9876493655
 H          3.0552569029        0.7705935518        2.1683804628
 H          0.6374450980        0.5673247031        2.0117961482
 H         -4.6044893201        1.5754451972       -0.0138575248

