#opt

Fluoxetine

1 1
 C         -3.3808099924        2.6443199696       -1.2117386565
 N         -2.5061452175        2.1422537370       -0.1404770000
 C         -3.2261179300        1.4385973969        0.9554644474
 C         -2.2674969050        0.5070352254        1.6897918005
 C         -1.6907833069       -0.5618868134        0.7325006723
 C         -2.8061483202       -1.2950789238        0.0105368930
 C         -3.0488237419       -1.1147113545       -1.3446949733
 C         -4.0907310491       -1.7871135287       -1.9621288162
 C         -4.9007602502       -2.6375766188       -1.2307694275
 C         -4.6576085180       -2.8266331852        0.1201202243
 C         -3.6148080329       -2.1610317638        0.7381714347
 O         -0.8384722037        0.0680665710       -0.2293527588
 C          0.5247976529        0.1380147898       -0.0245551138
 C          1.1581726974       -0.0898289148        1.1888889805
 C          2.5344349698        0.0358139380        1.2742401209
 C          3.2712948067        0.4025753523        0.1593755125
 C          2.6384778104        0.6341616093       -1.0557911852
 C          1.2685616448        0.5053215575       -1.1443107705
 C          4.7698027772        0.5167727701        0.2562748888
 F          5.2638427191        1.4226436127       -0.5973832586
 F          5.1721237424        0.8749931946        1.4824340018
 F          5.3743071336       -0.6489605473       -0.0238135980
 H         -2.7918063494        3.1584144725       -1.9683178554
 H         -4.1159626868        3.3376575247       -0.8065422560
 H         -3.9021626748        1.8094844807       -1.6765238157
 H         -1.9594251033        2.9161095226        0.2504869689
 H         -4.0262828685        0.8465890789        0.5056711082
 H         -3.6689967487        2.1677788918        1.6358531992
 H         -2.8103430326        0.0095231968        2.4918370120
 H         -1.4509482380        1.0772343343        2.1382330352
 H         -1.1173141706       -1.2949066149        1.3085631399
 H         -2.4025774666       -0.4791344900       -1.9321343076
 H         -4.2633024277       -1.6485642536       -3.0182948747
 H         -5.7106744562       -3.1610451354       -1.7132889663
 H         -5.2755354541       -3.5001733498        0.6924824835
 H         -3.4198363857       -2.3248379860        1.7875369190
 H          0.6100523967       -0.3682044659        2.0746733378
 H          3.0310432935       -0.1433673150        2.2148720558
 H          3.2158135343        0.9132226621       -1.9228638444
 H          0.7622761725        0.6695572259       -2.0823628876
 H         -1.8160058495        1.4318711604       -0.5078887603
  

