#opt

Fluoxetine

1 1
 C         -1.9676608923        3.3291734429       -0.1147621194
 N         -2.6223744410        2.0528444525       -0.4489996531
 C         -3.3622442257        1.4274677717        0.6842097196
 C         -2.4146747953        0.5769924985        1.5236137066
 C         -1.7764959823       -0.5496533093        0.6799790974
 C         -2.8433464698       -1.3943445788        0.0095219396
 C         -3.0996821534       -1.3162638385       -1.3527470236
 C         -4.0908675684       -2.0990664343       -1.9214585348
 C         -4.8381604929       -2.9568689961       -1.1341085250
 C         -4.5839634683       -3.0404360158        0.2253130262
 C         -3.5902182568       -2.2655478458        0.7946094006
 O         -0.9229433475        0.0232587396       -0.3178031956
 C          0.4363144988        0.1334044961       -0.1021315677
 C          1.0519855113        0.0408530966        1.1382354332
 C          2.4249668395        0.1914290953        1.2301171164
 C          3.1760657105        0.4491525843        0.0937524291
 C          2.5606839235        0.5489157376       -1.1474297853
 C          1.1934087571        0.3949586576       -1.2420278164
 C          4.6706475401        0.5870710180        0.2175601955
 F          5.2111872761        1.2469787214       -0.8125712224
 F          5.0205548663        1.2464038462        1.3317278781
 F          5.2748746549       -0.6103867717        0.2742387020
 H         -2.7102255761        4.0724198990        0.1709389351
 H         -1.4106823492        3.7001879618       -0.9724659150
 H         -1.2753034912        3.1875975283        0.7118554824
 H         -1.8856568979        1.3381455904       -0.7068501204
 H         -4.1453200029        0.7857341994        0.2751022067
 H         -3.8272530551        2.2079606628        1.2889252454
 H         -2.9814735255        0.1292112553        2.3385250688
 H         -1.6300405910        1.1957142847        1.9625551221
 H         -1.1892633749       -1.2024124380        1.3334917525
 H         -2.5026205229       -0.6731805015       -1.9826661324
 H         -4.2731541691       -2.0399299045       -2.9832814770
 H         -5.6079114865       -3.5669935562       -1.5791461130
 H         -5.1535863497       -3.7170761139        0.8424205967
 H         -3.3844097289       -2.3468161616        1.8516396148
 H          0.4924299715       -0.1517499959        2.0396375710
 H          2.9095297409        0.1160891125        2.1909425114
 H          3.1481730545        0.7438368979       -2.0304494558
 H          0.7001623596        0.4560380307       -2.1991954519
 H         -3.2504480168        2.1933532504       -1.2442539658
  

