! wB97X-D3 def2-TZVPP defgrid3 ESD(ABS)
%maxcore 5000

%pal nprocs 8 
end

%tddft
nroots=10
tda false
end

%esd
GSHESSIAN "Fentanyl_OProt_39.hess"
hessflag VG
STATES 1,2,3,4,5,6,7,8,9,10
unit nm
LINES gaussian
USEJ FALSE
end

*xyz 1 1
O            -0.554058        -0.996972         1.329225
N            -2.059784         2.415804        -0.555307
N             1.146092        -0.155574         0.027092
C             0.369040         0.997970        -0.526345
C            -0.807500         0.522731        -1.385639
C             0.022639         2.003392         0.576934
C            -1.694333         1.707490        -1.761630
C            -0.916569         3.076235         0.030213
C            -3.304660         3.162913        -0.604286
C            -4.517519         2.217702        -0.581523
C             2.526323        -0.248817        -0.411801
C             0.669999        -1.024509         0.875179
C            -4.334707         1.132369         0.451101
C             1.481855        -2.136044         1.457542
C             2.818784        -0.955931        -1.568278
C             3.508997         0.415387         0.305034
C             1.942083        -1.775559         2.878391
C            -4.137369        -0.191158         0.067839
C            -4.283703         1.444153         1.808532
C             4.135223        -1.010128        -2.006556
C             4.822893         0.355846        -0.143034
C             5.134598        -0.356487        -1.294480
C            -3.875403        -1.179501         1.011922
C            -4.018330         0.464707         2.756068
C            -3.805345        -0.852166         2.360423
H             1.076588         1.488741        -1.196095
H            -1.439370        -0.203109        -0.869647
H            -0.415900         0.027202        -2.278339
H             0.948527         2.445733         0.955204
H            -0.479712         1.530309         1.424461
H            -1.174603         2.364321        -2.481466
H            -2.589959         1.333044        -2.257573
H            -1.244536         3.714823         0.851573
H            -0.382910         3.718422        -0.693003
H            -3.335403         3.794329         0.286469
H            -3.366560         3.833153        -1.475263
H            -4.671132         1.765212        -1.564360
H            -5.412659         2.809581        -0.371615
H             2.334557        -2.353110         0.818499
H             0.831893        -3.012820         1.487980
H             2.029351        -1.463486        -2.111689
H             3.251527         0.970796         1.199850
H             2.478982        -2.622182         3.306051
H             1.090184        -1.549434         3.521108
H             2.616210        -0.917327         2.867736
H            -4.198717        -0.456343        -0.983869
H            -4.453259         2.467360         2.130366
H             4.379613        -1.564432        -2.904969
H             5.602270         0.866958         0.409666
H             6.160700        -0.401478        -1.639972
H            -3.740319        -2.208309         0.694486
H            -3.990177         0.725601         3.808484
H            -3.609698        -1.620182         3.100335
H            -1.126048        -0.288937         0.989535
*

