#opt

Fluoxetine_36

1 1
 C         -2.7199971471        4.4671136551        1.0198616281
 N         -2.4146279161        3.3052754480        0.1707679856
 C         -3.6070455900        2.5457329232       -0.2895079099
 C         -3.1877076401        1.1632485452       -0.7832619209
 C         -2.5914085375        0.3202805500        0.3563643294
 C         -2.3242539903       -1.1342733232        0.0324566621
 C         -1.7912290827       -1.9242860282        1.0468972112
 C         -1.5037326983       -3.2572599140        0.8235173381
 C         -1.7571608992       -3.8212682385       -0.4155179442
 C         -2.2983766634       -3.0448570311       -1.4246738624
 C         -2.5781033357       -1.7058484530       -1.2073203621
 O         -1.4258328044        0.9810772302        0.9112651030
 C         -0.1435862837        0.6100385469        0.5397276707
 C          0.8340296963        0.8006700893        1.5122593001
 C          2.1528436071        0.5103986268        1.2320715389
 C          2.4956269497        0.0232175986       -0.0236624933
 C          1.5248813064       -0.1619299486       -0.9945822642
 C          0.2024256081        0.1391407472       -0.7186261401
 C          3.9446320247       -0.2667294123       -0.3136235517
 F          4.6570661015        0.8717014286       -0.4056166251
 F          4.5146197068       -0.9948019787        0.6552096360
 F          4.1240602393       -0.9265533988       -1.4615132129
 H         -1.8012937179        4.9772041606        1.3011597174
 H         -3.2286409098        4.1386684745        1.9238436155
 H         -3.3633891163        5.1666426966        0.4883240617
 H         -1.8344223720        2.5803628596        0.6851265826
 H         -4.1183291738        3.1046185920       -1.0757528430
 H         -4.2867226266        2.4431346452        0.5592952700
 H         -2.4754037188        1.2606974327       -1.6043209307
 H         -4.0743089521        0.6536180149       -1.1582710525
 H         -3.3002602908        0.3455151067        1.1976547238
 H         -1.5987228371       -1.4878907308        2.0164075605
 H         -1.0878592948       -3.8551588387        1.6190209368
 H         -1.5373695347       -4.8621405466       -0.5924010207
 H         -2.5038252909       -3.4789010258       -2.3907701181
 H         -2.9961398983       -1.1255313035       -2.0154510667
 H          0.5448135638        1.1666501364        2.4846498273
 H          2.9134452052        0.6480513049        1.9843504600
 H          1.7966266728       -0.5395996105       -1.9675196930
 H         -0.5391622380       -0.0199867079       -1.4832093624
 H         -1.8693704337        3.6082565251       -0.6425533745

