#opt

Fluoxetine_50

1 1
 C         -2.8287369556        2.8637152918       -1.3874680103
 N         -2.7634316858        1.6564487524       -0.5497082932
 C         -2.2048257033        1.8828576050        0.8065082535
 C         -2.1917886754        0.5800282333        1.6053498443
 C         -1.7120516509       -0.6301315928        0.7523049187
 C         -2.8963782307       -1.3634117114        0.1392820540
 C         -3.8074404442       -1.9829958850        0.9888400400
 C         -4.8984778305       -2.6585373959        0.4733598270
 C         -5.0896711630       -2.7299443091       -0.8971997197
 C         -4.1766632641       -2.1336321215       -1.7484457488
 C         -3.0849083154       -1.4522730375       -1.2345554961
 O         -0.8514187149       -0.1970743192       -0.2958594915
 C          0.4972866049       -0.0306559574       -0.0773693096
 C          1.1204087739       -0.1058861290        1.1601263835
 C          2.4857706476        0.1041267296        1.2520836402
 C          3.2241845208        0.3943000900        0.1160320275
 C          2.6020919637        0.4751220414       -1.1239481587
 C          1.2433777662        0.2625651744       -1.2180546701
 C          4.6985575967        0.6745961550        0.2315935456
 F          4.9253237718        1.9887316834        0.4288532333
 F          5.2645677267        0.0323427566        1.2586382704
 F          5.3729794177        0.3335626080       -0.8713806412
 H         -1.8331816965        3.2886504665       -1.5007611559
 H         -3.4768361296        3.6080903251       -0.9279748631
 H         -3.2202740717        2.6168815870       -2.3719446407
 H         -2.1286685973        0.9399867678       -0.9687510279
 H         -2.7955081277        2.6395316726        1.3256331805
 H         -1.1880068920        2.2629530104        0.6828819431
 H         -3.1894819961        0.3590664517        1.9850497963
 H         -1.5393213066        0.7276497655        2.4655413837
 H         -1.1855637857       -1.3427027708        1.3966490551
 H         -3.6520143945       -1.9535055152        2.0572510762
 H         -5.5932542312       -3.1400296693        1.1430732589
 H         -5.9364220478       -3.2631557586       -1.2987512847
 H         -4.3040587618       -2.2048762590       -2.8173859942
 H         -2.3567716629       -1.0331303800       -1.9141928647
 H          0.5721325400       -0.3311093964        2.0602796334
 H          2.9742151581        0.0392286468        2.2116034420
 H          3.1811025710        0.6941351749       -2.0070147192
 H          0.7473811014        0.3059438833       -2.1748450961
 H         -3.6929053259        1.2269983893       -0.4685982909

