#opt

Fluoxetine_40

1 1
 C         -2.7028177885        4.5219221617        0.6788064257
 N         -2.4089276759        3.2883361102       -0.0665394516
 C         -3.6074861647        2.4985471638       -0.4534543301
 C         -3.1964934105        1.0795605091       -0.8387503460
 C         -2.5919968518        0.3264186363        0.3581171484
 C         -2.3248196622       -1.1482008040        0.1417683890
 C         -1.7746489067       -1.8590802642        1.2043570958
 C         -1.4897626510       -3.2053747632        1.0780668366
 C         -1.7626602799       -3.8618170979       -0.1102244078
 C         -2.3203104838       -3.1639256029       -1.1666931514
 C         -2.5978189097       -1.8123026575       -1.0469326210
 O         -1.4259397873        1.0292516907        0.8563942946
 C         -0.1435586211        0.6477636366        0.4969463516
 C          0.8441417218        0.9412121110        1.4332505223
 C          2.1642423900        0.6521255981        1.1584426820
 C          2.4992068987        0.0667737891       -0.0568820288
 C          1.5178043892       -0.2253123949       -0.9899869101
 C          0.1936458301        0.0746897744       -0.7206456416
 C          3.9451415623       -0.2555991166       -0.3278817065
 F          4.3776556582       -1.2720077620        0.4341117192
 F          4.1702228691       -0.5983585393       -1.6002100924
 F          4.7422080968        0.7906222543       -0.0585119003
 H         -1.7792443750        5.0467479050        0.9130438654
 H         -3.2119929996        4.2776409348        1.6086992892
 H         -3.3416717800        5.1779669293        0.0894918280
 H         -1.8309587251        2.6065902300        0.5062772419
 H         -4.1241348637        2.9939190765       -1.2778462284
 H         -4.2797555591        2.4671823642        0.4067189499
 H         -2.4920948214        1.1085510948       -1.6717951757
 H         -4.0882971525        0.5450359945       -1.1633236689
 H         -3.2962339945        0.4136102442        1.1991027557
 H         -1.5669594595       -1.3506912382        2.1348492568
 H         -1.0606417632       -3.7414090577        1.9097741804
 H         -1.5452345925       -4.9132424261       -0.2110415727
 H         -2.5407931388       -3.6696912444       -2.0938087765
 H         -3.0289594334       -1.2951244319       -1.8902264175
 H          0.5615989029        1.3851211213        2.3746690607
 H          2.9330464991        0.8730477091        1.8819668621
 H          1.7830064933       -0.6802171760       -1.9311319919
 H         -0.5554660758       -0.1654287881       -1.4561077380
 H         -1.8660515904        3.5154923088       -0.9056922778

