#opt

Fluoxetine_48

1 1
 C         -4.9765360109        1.6023571372       -0.0622941531
 N         -3.6591750844        1.6100222930       -0.7223331439
 C         -2.5390687607        2.0887675479        0.1350344681
 C         -2.1462440784        1.0852283895        1.2137380225
 C         -1.5977305684       -0.2321920031        0.6076270737
 C         -2.7239850458       -1.0661200831        0.0230192730
 C         -3.6252543173       -1.6955200804        0.8750598046
 C         -4.6735779259       -2.4363982108        0.3579280529
 C         -4.8364439021       -2.5558509853       -1.0141022744
 C         -3.9389251253       -1.9423854213       -1.8700949284
 C         -2.8879279107       -1.1923814972       -1.3580722596
 O         -0.6631535282        0.0583206895       -0.4123879469
 C          0.6757681201        0.1421315590       -0.1294847970
 C          1.2259127127        0.2001688830        1.1445051961
 C          2.5985459616        0.2948082852        1.2957227811
 C          3.4211948298        0.3475009813        0.1819293311
 C          2.8748744080        0.2967489882       -1.0949620035
 C          1.5090089618        0.1964534517       -1.2466849186
 C          4.9130179901        0.4207944019        0.3601649888
 F          5.4609676245       -0.8031383796        0.4641057524
 F          5.5224978119        1.0264926432       -0.6666665166
 F          5.2611160077        1.0884534591        1.4690844659
 H         -5.2134508484        2.5938143989        0.3195369696
 H         -4.9755371502        0.8924771225        0.7612257166
 H         -5.7453572362        1.3035828596       -0.7714072508
 H         -3.7087465067        2.2004480038       -1.5579475590
 H         -2.8262988070        3.0385315577        0.5901704968
 H         -1.6733257346        2.2540980212       -0.5105061787
 H         -2.9778650785        0.8618657428        1.8802431911
 H         -1.3620534594        1.5559903302        1.8082020966
 H         -1.1291735145       -0.8190642641        1.4067210617
 H         -3.4898795529       -1.6279720748        1.9444033897
 H         -5.3562145168       -2.9350505105        1.0275762523
 H         -5.6467202994       -3.1453361369       -1.4119881643
 H         -4.0411947045       -2.0572687376       -2.9379465633
 H         -2.1432817971       -0.7783419779       -2.0233693234
 H          0.6142744059        0.1705741037        2.0322761351
 H          3.0269057751        0.3368341364        2.2849087960
 H          3.5172351193        0.3360254474       -1.9603709151
 H          1.0667862164        0.1497278810       -2.2287635704
 H         -3.4223418956        0.6230531022       -1.0185502413

